benchmarks/simple/result/reg3.output
sat
(model
  (define-fun x () String
    "a")
  (define-fun y () String
    "b")
)
